973757
141,169,108,149,89,170,185,87,227,128,37,202,5,102,186,11,145,179,120,76,40,105,218,23,65,189,201,174,53,55,17,52,91,215,99,104,98,140,127,221,157,81,1,114,131,78,56,83,138,57,196,213,13,109,7,119,64,197,200,9,163,199,124,18,133,175,47,16,110,45,226,224,46,193,164,96,144,25,155,210,222,2,137,14,29,12,63,219,43,4,136,184,188,59,158,15,143,67,8,95,90,165,183,100,115,160,195,106,178,36,33,191,27,107,86,150,77,54,61,101,39,26,168,80,93,34,49,132,111,154,35,6,228,71,62,209,182,19,116,21,88,204,74,214,129,161,117,70,139,156,73,146,206,42,38,66,0,31,82,134,48,162,126,177,30,198,97,41,112,72,125,194,85,69,190,121,151,22,68,225,50,207,159,176,205,172,180,135,187,84,181,24,60,147,130,166,94,10,142,75,153,173,28,192,118,217,208,113,123,122,79,148,51,92,171,203,167,58,220,212,44,229,103,211,223,32,152,216,20,3
